%NProcShared=1
%Mem=10GB

#p B3LYP/6-31G* opt freq

test

0  1
C           5.16920         3.31930         1.70990
O           4.97890         1.97700         1.28050
C           3.68890         1.53050         1.20680
C           3.55150         0.20300         0.80190
C           2.28760        -0.38350         0.68300
C           1.12700         0.34940         0.96450
C          -0.24260        -0.29040         0.81910
O          -1.22010         0.45280         1.57220
C          -2.44150         0.34750         0.97900
O          -3.46190         0.84100         1.42970
C          -2.33540        -0.48880        -0.27070
C          -3.32060        -0.04830        -1.34420
C          -0.83270        -0.37500        -0.60740
C          -0.56790         0.93540        -1.40560
C          -0.29100        -1.54620        -1.47890
C          -0.06670        -2.95670        -0.87990
C           0.65020        -3.82640        -1.92470
C          -1.33550        -3.67590        -0.43120
C           1.27820         1.68460         1.37450
C           2.54490         2.27030         1.49410
H           4.71010         4.02610         1.01080
H           6.24550         3.51640         1.72330
H           4.79130         3.46620         2.72720
H           4.43970        -0.38360         0.57850
H           2.23280        -1.42170         0.37050
H          -0.20370        -1.27440         1.30170
H          -2.60330        -1.49980         0.03520
H          -4.34660        -0.26680        -1.02620
H          -3.27740         1.02970        -1.53110
H          -3.14550        -0.57860        -2.28500
H          -0.95060         1.82000        -0.88490
H           0.50240         1.09170        -1.58050
H          -1.03790         0.90000        -2.39500
H          -0.93870        -1.64690        -2.36080
H           0.68320        -1.22590        -1.87600
H           0.60260        -2.89030        -0.01720
H           1.59800        -3.37000        -2.22970
H           0.03280        -3.96130        -2.81950
H           0.87940        -4.81730        -1.51780
H          -1.14610        -4.74250        -0.26510
H          -2.13170        -3.59040        -1.17770
H          -1.69390        -3.28030         0.52260
H           0.40490         2.29210         1.60780
H           2.59700         3.30530         1.81510

