%NProcShared=1
%Mem=10GB

#p B3LYP/6-31G* opt freq

test

0  1
C           5.35020         3.33550         1.20640
O           5.01490         1.99070         1.52470
C           3.70450         1.62990         1.37540
C           2.67300         2.44900         0.92120
C           1.36980         1.94770         0.81450
C           1.07370         0.61930         1.15620
C          -0.32820         0.05570         1.03740
O          -1.30340         1.09390         1.18240
C          -2.45310         0.70700         0.56780
O          -3.49980         1.33080         0.63570
C          -2.24170        -0.59250        -0.17670
C          -3.03600        -0.57590        -1.47790
C          -0.70340        -0.67440        -0.28270
C          -0.16840         0.07740        -1.52340
C          -0.13090        -2.12330        -0.25070
C          -0.55690        -3.09250        -1.37640
C           0.61110        -4.01860        -1.73950
C          -1.75220        -3.95700        -0.96410
C           2.11860        -0.19260         1.61880
C           3.41880         0.30920         1.72330
H           4.81700         4.03970         1.85370
H           6.42190         3.46420         1.38640
H           5.16240         3.54920         0.14900
H           2.84310         3.48370         0.64310
H           0.58320         2.61280         0.46140
H          -0.48480        -0.60720         1.90110
H          -2.61760        -1.38710         0.47960
H          -2.85640         0.33650        -2.05690
H          -4.11050        -0.60090        -1.26230
H          -2.81140        -1.43550        -2.11200
H           0.92610         0.05070        -1.56490
H          -0.52540        -0.36420        -2.45850
H          -0.47660         1.12870        -1.52430
H           0.96330        -2.03600        -0.27150
H          -0.36450        -2.58550         0.71800
H          -0.81890        -2.53950        -2.28250
H           0.93840        -4.60500        -0.87410
H           1.46720        -3.43940        -2.10200
H           0.32370        -4.71600        -2.53370
H          -2.62720        -3.35440        -0.71290
H          -2.04130        -4.62800        -1.78040
H          -1.51210        -4.57650        -0.09300
H           1.93370        -1.22480         1.90780
H           4.21740        -0.33510         2.08350

