%NProcShared=1
%Mem=10GB

#p B3LYP/6-31G* opt freq

test

0  1
C           5.97630         2.00770         0.63680
O           4.91150         1.89370         1.57190
C           3.66940         1.62840         1.06600
C           3.35140         1.44490        -0.27820
C           2.03110         1.17580        -0.66030
C           1.00560         1.08140         0.29310
C          -0.41290         0.77800        -0.14680
O          -1.36140         1.22910         0.82740
C          -2.51480         0.52520         0.67600
O          -3.55030         0.77360         1.27200
C          -2.33300        -0.57810        -0.33770
C          -3.06140        -0.18870        -1.62080
C          -0.79120        -0.70720        -0.42340
C          -0.27930        -1.13220        -1.80390
C          -0.25540        -1.65450         0.71180
C          -0.31380        -3.20120         0.59420
C          -1.67630        -3.78710         0.24410
C           0.77260        -3.78860        -0.31140
C           1.33700         1.27570         1.64150
C           2.65530         1.54350         2.02030
H           6.89110         2.22530         1.19660
H           5.80550         2.83730        -0.05720
H           6.13130         1.06670         0.09860
H           4.10470         1.50630        -1.05650
H           1.81290         1.04590        -1.71830
H          -0.59860         1.39630        -1.03720
H          -2.79400        -1.47660         0.07300
H          -2.98720        -0.98050        -2.37250
H          -4.12650        -0.02360        -1.42210
H          -2.67030         0.73870        -2.05200
H          -0.76820        -2.04740        -2.14910
H          -0.47020        -0.36610        -2.56380
H           0.80180        -1.30280        -1.79260
H           0.80100        -1.42160         0.89120
H          -0.76600        -1.38820         1.64810
H          -0.07500        -3.56980         1.60280
H          -2.00090        -3.50160        -0.76020
H          -1.64220        -4.88210         0.27610
H          -2.43400        -3.46950         0.96710
H           0.54430        -3.66930        -1.37260
H           1.74650        -3.33040        -0.11130
H           0.87380        -4.86450        -0.12800
H           0.57300         1.21930         2.41460
H           2.89190         1.68970         3.07160

