%NProcShared=1
%Mem=10GB

#p B3LYP/6-31G* opt freq

test

0  1
C           5.50220         2.69950         2.06820
O           5.18570         1.84960         0.97290
C           3.85970         1.60820         0.74260
C           3.59700         0.79010        -0.35670
C           2.28430         0.46160        -0.70630
C           1.20260         0.94300         0.04420
C          -0.21420         0.56730        -0.34150
O          -1.13550         1.58270         0.07090
C          -2.36920         1.02770         0.20950
O          -3.38140         1.67400         0.42630
C          -2.29470        -0.47320         0.03830
C          -3.26540        -1.15020         0.99940
C          -0.78930        -0.76020         0.22720
C          -0.41950        -0.95170         1.71620
C          -0.25050        -1.95680        -0.61300
C          -0.85360        -3.35450        -0.34740
C          -1.99720        -3.67650        -1.31420
C           0.23000        -4.42980        -0.50020
C           1.47660         1.77000         1.14430
C           2.79260         2.09890         1.49210
H           5.08230         3.70070         1.92580
H           5.17080         2.26190         3.01570
H           6.59120         2.79840         2.11050
H           4.42410         0.40710        -0.94980
H           2.11940        -0.17170        -1.57510
H          -0.26110         0.56690        -1.44050
H          -2.59110        -0.67920        -0.99760
H          -3.14960        -0.78410         2.02540
H          -3.15230        -2.23580         1.00690
H          -4.29860        -0.93140         0.70580
H          -0.70120        -0.08130         2.31890
H           0.65710        -1.11050         1.84280
H          -0.91550        -1.82230         2.15540
H           0.83130        -2.01240        -0.43430
H          -0.35420        -1.72670        -1.68210
H          -1.22940        -3.42390         0.67710
H          -2.81390        -2.95620        -1.23820
H          -2.41420        -4.66680        -1.10050
H          -1.64950        -3.67880        -2.35330
H          -0.18290        -5.42820        -0.31980
H           1.03850        -4.27110         0.22150
H           0.66390        -4.41800        -1.50600
H           0.66280         2.17240         1.74550
H           2.94450         2.74210         2.35230

