%NProcShared=1
%Mem=10GB

#p B3LYP/6-31G* opt freq

test

0  1
C           6.00500         2.13630         1.31290
O           4.72950         2.75740         1.21870
C           3.63960         1.93250         1.20010
C           2.41060         2.58840         1.12840
C           1.21250         1.86770         1.10020
C           1.21890         0.46700         1.13180
C          -0.05430        -0.36380         1.10270
O          -1.16470         0.40270         1.58820
C          -1.98620         0.74370         0.56250
O          -2.93770         1.50000         0.67980
C          -1.56060         0.07860        -0.71990
C          -1.07750         1.12920        -1.71190
C          -0.53080        -0.97290        -0.25290
C           0.61000        -1.23380        -1.24810
C          -1.25790        -2.33150         0.08120
C          -1.55970        -3.32990        -1.06450
C          -2.15480        -4.61360        -0.46920
C          -2.50460        -2.79680        -2.13830
C           2.46230        -0.18270         1.22090
C           3.66090         0.54090         1.24970
H           6.10150         1.57160         2.24610
H           6.19910         1.50000         0.44320
H           6.76180         2.92660         1.32240
H           2.38250         3.67540         1.10120
H           0.27950         2.42590         1.06310
H           0.09230        -1.15720         1.84670
H          -2.45490        -0.39750        -1.12840
H          -0.83250         0.67390        -2.67650
H          -1.85850         1.87660        -1.89180
H          -0.19780         1.66900        -1.35290
H           0.22980        -1.55950        -2.22120
H           1.28320        -2.01460        -0.87740
H           1.21270        -0.34080        -1.44080
H          -0.62050        -2.87800         0.79120
H          -2.18910        -2.12210         0.62580
H          -0.61750        -3.61440        -1.54760
H          -3.10990        -4.41470         0.02910
H          -1.47360        -5.05580         0.26560
H          -2.32900        -5.36150        -1.25020
H          -2.73560        -3.57690        -2.87230
H          -3.45140        -2.45970        -1.70350
H          -2.05760        -1.96650        -2.69130
H           2.51030        -1.26920         1.26970
H           4.59060        -0.01440         1.31440

