%NProcShared=1
%Mem=10GB

#p B3LYP/6-31G* opt freq

test

0  1
C           5.72390         2.45360         1.45950
O           5.23140         1.50200         0.52440
C           3.93670         1.09370         0.68460
C           3.50330         0.14530        -0.24120
C           2.19990        -0.35970        -0.19400
C           1.29400         0.07680         0.78100
C          -0.12480        -0.47070         0.81890
O          -0.69230        -0.24590         2.12270
C          -2.03000        -0.03050         2.02790
O          -2.75840         0.15360         2.99000
C          -2.48040        -0.08370         0.58910
C          -3.25970        -1.37360         0.40370
C          -1.14970         0.13210        -0.17000
C          -0.95160         1.68640        -0.25050
C          -1.05730        -0.36070        -1.64750
C          -1.34860        -1.80400        -2.12620
C          -0.49090        -2.90790        -1.51810
C          -1.17990        -1.85120        -3.65640
C           1.74440         1.02960         1.71070
C           3.05050         1.53430         1.66360
H           5.16600         3.39370         1.39670
H           6.76570         2.66730         1.20160
H           5.70890         2.05130         2.47790
H           4.18920        -0.20770        -1.00780
H           1.91150        -1.09970        -0.93270
H          -0.05500        -1.55560         0.73260
H          -3.16040         0.75980         0.41760
H          -2.62440        -2.25830         0.49180
H          -3.77670        -1.38180        -0.55870
H          -4.03730        -1.47040         1.17120
H          -0.94430         2.15690         0.73910
H          -0.01450         1.94920        -0.75380
H          -1.76280         2.15270        -0.82280
H          -1.74640         0.27710        -2.22210
H          -0.05830        -0.09520        -2.02010
H          -2.39550        -2.04970        -1.94200
H          -0.71960        -3.06960        -0.46420
H          -0.68410        -3.86400        -2.01880
H           0.57530        -2.69770        -1.62600
H          -0.14500        -1.64190        -3.94850
H          -1.44970        -2.83770        -4.04910
H          -1.82760        -1.11510        -4.14460
H           1.07960         1.39580         2.49170
H           3.33800         2.26810         2.40900

