%NProcShared=1
%Mem=10GB

#p B3LYP/6-31G* opt freq

test

0  1
C           5.99970         1.13560         0.47570
O           4.85140         1.83660         0.93540
C           3.68450         1.12880         1.01310
C           3.51160        -0.21090         0.67530
C           2.25310        -0.81230         0.80290
C           1.13880        -0.08680         1.25810
C          -0.20650        -0.78320         1.38040
O          -1.03180        -0.11530         2.34880
C          -2.04670         0.54940         1.73260
O          -2.83870         1.27010         2.31920
C          -2.04170         0.29240         0.24690
C          -1.64030         1.56910        -0.48140
C          -1.10880        -0.93050         0.12270
C          -1.96740        -2.20800         0.33480
C          -0.32650        -1.04220        -1.21580
C          -1.17270        -1.22810        -2.50040
C          -0.54180        -0.45240        -3.66430
C          -1.28050        -2.70120        -2.91130
C           1.33370         1.25440         1.61410
C           2.59080         1.85370         1.48570
H           5.86120         0.78170        -0.55130
H           6.84100         1.83550         0.47580
H           6.25370         0.30960         1.14820
H           4.33340        -0.81970         0.31370
H           2.15330        -1.86470         0.54300
H           0.00160        -1.77400         1.80660
H          -3.06320         0.02630        -0.05060
H          -2.27510         2.40690        -0.17110
H          -1.75910         1.45990        -1.56230
H          -0.60720         1.86090        -0.28130
H          -2.44260        -2.22250         1.32280
H          -1.34990        -3.11010         0.25960
H          -2.77410        -2.27900        -0.40160
H           0.38360        -1.87620        -1.14390
H           0.28830        -0.14160        -1.33280
H          -2.18350        -0.83390        -2.34740
H          -1.13540        -0.56910        -4.57740
H          -0.48800         0.61790        -3.44070
H           0.47420        -0.80560        -3.87240
H          -1.88360        -2.80360        -3.82020
H          -1.75260        -3.31170        -2.13900
H          -0.29270        -3.12840        -3.11710
H           0.51690         1.85690         2.00610
H           2.71770         2.89720         1.76510

