%NProcShared=1
%Mem=10GB

#p B3LYP/6-31G* opt freq

test

0  1
C           5.83440         1.67340         1.36360
O           4.85100         1.96810         0.37990
C           3.56490         1.59990         0.66120
C           2.63170         1.93990        -0.31840
C           1.27880         1.62200        -0.16300
C           0.83030         0.95000         0.98200
C          -0.62390         0.55910         1.19020
O          -1.48270         1.57320         0.65110
C          -2.04720         1.13860        -0.50790
O          -2.75360         1.83730        -1.21720
C          -1.64870        -0.29070        -0.79430
C          -2.83160        -1.03800        -1.40130
C          -1.13030        -0.77800         0.57080
C          -2.27750        -1.29620         1.47720
C          -0.00790        -1.85680         0.49710
C          -0.35540        -3.21930        -0.14600
C           0.36690        -4.34970         0.59740
C           0.05190        -3.26760        -1.62240
C           1.77770         0.61730         1.96550
C           3.13170         0.93710         1.80700
H           6.79680         2.04110         0.99500
H           5.61910         2.18980         2.30500
H           5.92740         0.59310         1.51690
H           2.95960         2.46470        -1.21300
H           0.58960         1.92150        -0.94860
H          -0.80560         0.56270         2.27300
H          -0.82640        -0.24950        -1.51850
H          -2.64180        -2.10820        -1.49870
H          -3.04470        -0.65160        -2.40480
H          -3.74720        -0.90280        -0.81530
H          -2.76840        -2.18380         1.06910
H          -1.89570        -1.56420         2.46940
H          -3.05260        -0.53480         1.62280
H           0.86150        -1.45300        -0.03580
H           0.33190        -2.03150         1.52750
H          -1.42680        -3.42290        -0.07350
H           0.05210        -4.38710         1.64580
H           0.13680        -5.32160         0.14780
H           1.45340        -4.21240         0.57260
H          -0.42830        -2.47840        -2.20480
H          -0.23320        -4.22660        -2.06870
H           1.13550        -3.15490        -1.73900
H           1.46860         0.09870         2.87140
H           3.81840         0.65400         2.59760

