%NProcShared=1
%Mem=10GB

#p B3LYP/6-31G* opt freq

test

0  1
C           6.24310         1.21220         0.68320
O           5.10620         2.05390         0.82620
C           3.88870         1.43880         0.91890
C           2.80680         2.30490         1.07860
C           1.50400         1.81020         1.18530
C           1.25540         0.43190         1.12940
C          -0.14780        -0.13340         1.22900
O          -1.01170         0.75690         1.94350
C          -2.29840         0.50250         1.58280
O          -3.26670         1.00530         2.12950
C          -2.34100        -0.48910         0.44090
C          -3.46630        -0.12400        -0.51960
C          -0.89500        -0.44350        -0.10260
C          -0.68770         0.69560        -1.12350
C          -0.39150        -1.81020        -0.65760
C          -1.23170        -2.57730        -1.70250
C          -1.22540        -1.93980        -3.09100
C          -0.68690        -4.00950        -1.82330
C           2.35080        -0.43190         0.97570
C           3.65550         0.06590         0.86950
H           7.12890         1.85260         0.63130
H           6.19350         0.63670        -0.24710
H           6.35880         0.55370         1.55050
H           2.97830         3.37780         1.12390
H           0.68620         2.51670         1.31440
H          -0.08570        -1.03280         1.85930
H          -2.54390        -1.47200         0.88580
H          -3.41910         0.92610        -0.82760
H          -4.43770        -0.26090        -0.03020
H          -3.46400        -0.74820        -1.41470
H          -0.88590         1.67720        -0.67840
H           0.33840         0.70540        -1.50730
H          -1.34760         0.61230        -1.98740
H           0.62230        -1.67930        -1.05890
H          -0.27620        -2.48610         0.20180
H          -2.26570        -2.66370        -1.35340
H          -1.64130        -2.62540        -3.83800
H          -1.84260        -1.04120        -3.12570
H          -0.21010        -1.67780        -3.40650
H          -1.28390        -4.59630        -2.52980
H           0.35160        -4.01130        -2.17200
H          -0.72260        -4.52430        -0.85720
H           2.20150        -1.50920         0.94130
H           4.46490        -0.64670         0.75130

