%NProcShared=1
%Mem=10GB

#p B3LYP/6-31G* opt freq

test

0  1
C           4.26770         2.25680         3.59700
O           3.69060         0.95720         3.59550
C           2.59260         0.77030         2.80310
C           2.00060         1.72440         1.97920
C           0.87320         1.39740         1.21310
C           0.31910         0.10900         1.24910
C          -0.89730        -0.28980         0.43110
O          -1.89430         0.74450         0.52790
C          -1.97620         1.43390        -0.64540
O          -2.70890         2.39350        -0.82070
C          -1.00640         0.86660        -1.65140
C          -1.54570         0.94630        -3.07300
C          -0.74000        -0.54690        -1.09040
C          -1.85180        -1.53090        -1.52930
C           0.65440        -1.05640        -1.55410
C           1.07820        -2.46670        -1.08170
C           2.58760        -2.49810        -0.80990
C           0.75730        -3.54570        -2.12240
C           0.91740        -0.83670         2.09620
C           2.04240        -0.50940         2.85860
H           3.55670         3.00470         3.96340
H           5.11960         2.24340         4.28390
H           4.64480         2.52210         2.60370
H           2.38340         2.73730         1.91180
H           0.43090         2.18100         0.60330
H          -1.34130        -1.17130         0.91110
H          -0.09620         1.47610        -1.59390
H          -1.60520         1.99210        -3.39540
H          -0.89400         0.41900        -3.77590
H          -2.55760         0.53660        -3.15620
H          -2.85300        -1.12940        -1.33510
H          -1.78420        -2.47690        -0.98170
H          -1.78800        -1.75680        -2.59900
H           1.40840        -0.32650        -1.23190
H           0.69390        -1.02750        -2.65150
H           0.56370        -2.72360        -0.15020
H           3.15870        -2.26970        -1.71660
H           2.86640        -1.76770        -0.04430
H           2.89850        -3.48580        -0.45310
H           1.08110        -4.53050        -1.76760
H           1.27050        -3.34810        -3.07010
H          -0.31240        -3.61300        -2.32990
H           0.51450        -1.84440         2.17530
H           2.49150        -1.25980         3.50490

