%NProcShared=1
%Mem=10GB

#p B3LYP/6-31G* opt freq

test

0  1
C           5.51140         2.58010         0.16840
O           5.03730         1.39770         0.79960
C           3.68680         1.18660         0.78230
C           3.26790         0.02410         1.42850
C           1.91280        -0.31490         1.48320
C           0.94280         0.49450         0.87490
C          -0.53180         0.15190         0.92410
O          -0.85250        -0.23990         2.27010
C          -1.92440        -1.07550         2.26380
O          -2.46320        -1.50540         3.27070
C          -2.36190        -1.36060         0.84970
C          -3.64420        -0.57520         0.58790
C          -1.08920        -0.97970         0.02820
C          -0.20990        -2.25400         0.00880
C          -1.46030        -0.53690        -1.41770
C          -0.40670         0.04960        -2.38410
C          -1.11190         0.46420        -3.68640
C           0.75120        -0.87990        -2.73210
C           1.37420         1.67650         0.25360
C           2.73230         2.01640         0.19910
H           6.60070         2.60020         0.27100
H           5.11440         3.47550         0.65820
H           5.27780         2.57750        -0.90140
H           4.00230        -0.62210         1.90340
H           1.62450        -1.21640         2.01980
H          -1.09760         1.07690         0.74570
H          -2.57540        -2.43230         0.75750
H          -3.48820         0.50560         0.67030
H          -4.04850        -0.79760        -0.40440
H          -4.41550        -0.84320         1.31930
H          -0.09950        -2.69040         1.00840
H          -0.66190        -3.02520        -0.62620
H           0.79770        -2.07670        -0.36300
H          -1.94860        -1.38680        -1.91570
H          -2.23240         0.23900        -1.34020
H           0.00210         0.96620        -1.95380
H          -1.92140         1.17400        -3.48500
H          -0.41080         0.95240        -4.37200
H          -1.53970        -0.40400        -4.19960
H           0.40100        -1.89310        -2.95330
H           1.48120        -0.92240        -1.92110
H           1.29780        -0.51680        -3.60990
H           0.65320         2.35720        -0.19500
H           3.00660         2.93910        -0.30110

