%NProcShared=1
%Mem=10GB

#p B3LYP/6-31G* opt freq

test

0  1
C           5.33810         1.95110         3.19250
O           5.09460         1.71980         1.81070
C           3.93700         1.06740         1.48900
C           3.75170         0.84350         0.12510
C           2.60970         0.18710        -0.34190
C           1.61620        -0.25150         0.54790
C           0.38910        -0.96180         0.00100
O          -0.20100        -1.79440         1.01100
C          -1.36860        -1.25470         1.45030
O          -2.01070        -1.70270         2.38720
C          -1.74220        -0.03690         0.64650
C          -1.65110         1.20560         1.52390
C          -0.78630        -0.11420        -0.56340
C          -0.36710         1.25270        -1.12150
C          -1.46090        -0.96330        -1.70540
C          -2.68600        -0.32360        -2.40530
C          -3.78320        -1.37210        -2.61680
C          -2.30860         0.28050        -3.76170
C           1.82150        -0.03500         1.91850
C           2.96800         0.62190         2.38490
H           4.56770         2.59720         3.62630
H           5.42000         1.00780         3.74260
H           6.29670         2.47160         3.28030
H           4.50690         1.17960        -0.58150
H           2.50570         0.02150        -1.41230
H           0.75750        -1.65430        -0.76730
H          -2.78380        -0.16410         0.33290
H          -1.98220         2.09530         0.97930
H          -2.29510         1.10250         2.40470
H          -0.63720         1.38440         1.89060
H           0.27410         1.13810        -2.00210
H          -1.23660         1.84850        -1.41700
H           0.18190         1.85420        -0.39020
H          -0.70160        -1.20000        -2.46370
H          -1.75560        -1.93280        -1.28030
H          -3.11080         0.47260        -1.78440
H          -3.42720        -2.20160        -3.23740
H          -4.11660        -1.78260        -1.65760
H          -4.65570        -0.92960        -3.10930
H          -1.92600        -0.48560        -4.44510
H          -1.54190         1.05300        -3.66060
H          -3.18190         0.74360        -4.23390
H           1.09730        -0.38280         2.65290
H           3.07140         0.76180         3.45600

