%NProcShared=1
%Mem=10GB

#p B3LYP/6-31G* opt freq

test

0  1
C           5.76460         2.40900         0.85750
O           4.61110         2.31350         1.68300
C           3.66080         1.40180         1.31550
C           3.71020         0.56710         0.20070
C           2.66150        -0.32380        -0.06030
C           1.54330        -0.39430         0.78460
C           0.41740        -1.35880         0.47240
O          -0.33550        -1.67410         1.65240
C          -1.57630        -2.09730         1.27960
O          -2.41330        -2.52400         2.05710
C          -1.72370        -1.98460        -0.21960
C          -3.16140        -1.72560        -0.63040
C          -0.65030        -0.92420        -0.57320
C          -0.12890        -1.14020        -1.99890
C          -1.12570         0.55110        -0.33050
C          -2.00050         1.23010        -1.41510
C          -2.99880         2.18920        -0.75420
C          -1.15980         2.02610        -2.42060
C           1.50920         0.44490         1.90720
C           2.55660         1.33350         2.16530
H           6.31740         1.46380         0.84020
H           6.42170         3.17080         1.28790
H           5.49980         2.73130        -0.15500
H           4.55010         0.58070        -0.48570
H           2.73320        -0.96880        -0.93360
H           0.89000        -2.30520         0.16900
H          -1.42620        -2.96220        -0.62510
H          -3.24970        -1.61800        -1.71510
H          -3.79620        -2.56970        -0.33670
H          -3.57930        -0.84100        -0.14170
H          -0.92570        -1.02950        -2.74100
H           0.28250        -2.14850        -2.12490
H           0.66950        -0.43380        -2.24400
H          -1.65470         0.58160         0.63140
H          -0.24960         1.19520        -0.19340
H          -2.57670         0.48820        -1.97230
H          -3.62840         2.67620        -1.50660
H          -3.66110         1.65230        -0.06720
H          -2.48240         2.97090        -0.18640
H          -0.46520         1.38720        -2.96970
H          -0.57640         2.80770        -1.92150
H          -1.80450         2.51340        -3.16040
H           0.66530         0.41890         2.59420
H           2.51020         1.97720         3.04060

