%NProcShared=1
%Mem=10GB

#p B3LYP/6-31G* opt freq

test

0  1
C           6.33160         0.26490         1.38880
O           5.36900         1.29200         1.18650
C           4.05490         0.91510         1.18690
C           3.57140        -0.38190         1.34390
C           2.19250        -0.63130         1.32250
C           1.27050         0.40990         1.13880
C          -0.23570         0.18660         1.10050
O          -0.59290        -0.97670         1.86560
C          -0.86720        -2.01240         1.02150
O          -1.13990        -3.14060         1.39650
C          -0.72930        -1.55690        -0.41060
C          -1.63860        -2.33190        -1.34440
C          -0.92990        -0.02770        -0.28880
C          -0.21500         0.70460        -1.42660
C          -2.44550         0.39210        -0.12250
C          -3.31220         1.01010        -1.25050
C          -3.56650         0.11940        -2.45990
C          -2.87560         2.41080        -1.68420
C           1.77170         1.71370         0.99430
C           3.14720         1.95940         1.01400
H           6.20340        -0.20970         2.36730
H           6.29490        -0.47450         0.58190
H           7.32300         0.72780         1.37090
H           4.23700        -1.22610         1.49130
H           1.85860        -1.65660         1.46660
H          -0.67880         1.03920         1.62960
H           0.30700        -1.77570        -0.70180
H          -2.68120        -2.31890        -1.01620
H          -1.56980        -1.95430        -2.36720
H          -1.33980        -3.38660        -1.36970
H          -0.68130         0.50860        -2.39400
H          -0.19820         1.78490        -1.25570
H           0.82530         0.37700        -1.53350
H          -3.00480        -0.46270         0.28100
H          -2.49760         1.13640         0.68470
H          -4.29910         1.15390        -0.78460
H          -2.66210        -0.06370        -3.04230
H          -3.99350        -0.84030        -2.15610
H          -4.29140         0.59140        -3.13310
H          -3.70810         2.92650        -2.17690
H          -2.05350         2.38980        -2.40340
H          -2.57640         3.01900        -0.82470
H           1.09430         2.55540         0.86400
H           3.51460         2.97630         0.89710

