%NProcShared=1
%Mem=10GB

#p B3LYP/6-31G* opt freq

test

0  1
C           6.32780         0.43470         0.96230
O           5.36630         1.26970         0.32930
C           4.09540         0.77760         0.22420
C           3.64830        -0.45350         0.69740
C           2.31110        -0.83560         0.52370
C           1.39240         0.00640        -0.12190
C          -0.07010        -0.36740        -0.32210
O          -0.22550        -1.79950        -0.33950
C          -0.74800        -2.22410         0.84630
O          -0.94240        -3.39560         1.12420
C          -0.98410        -1.04270         1.75000
C          -2.14900        -1.27020         2.70150
C          -1.09630         0.12430         0.73550
C          -0.74580         1.45130         1.42410
C          -2.53840         0.20340         0.11440
C          -2.95490         1.47530        -0.66790
C          -4.43930         1.36770        -1.04630
C          -2.14230         1.74080        -1.93090
C           1.86100         1.23840        -0.60390
C           3.19450         1.61850        -0.42790
H           7.28530         0.96440         0.95760
H           6.46250        -0.50150         0.41050
H           6.05810         0.24390         2.00630
H           4.31220        -1.14730         1.20270
H           2.01030        -1.81330         0.89430
H          -0.34570        -0.04440        -1.32820
H          -0.07430        -0.92690         2.35410
H          -1.87480        -2.01500         3.45760
H          -3.03310        -1.66420         2.18950
H          -2.42030        -0.34980         3.22700
H          -0.62350         2.26540         0.70370
H           0.18320         1.38120         2.00050
H          -1.53290         1.74440         2.12800
H          -3.26410         0.12820         0.93280
H          -2.71390        -0.67650        -0.51910
H          -2.85970         2.34690        -0.00950
H          -5.06160         1.23510        -0.15480
H          -4.61780         0.51870        -1.71510
H          -4.77980         2.27680        -1.55370
H          -2.56170         2.58230        -2.49370
H          -1.11160         2.00920        -1.69030
H          -2.13580         0.86850        -2.59250
H           1.19350         1.92080        -1.12460
H           3.53510         2.57920        -0.80700

