%NProcShared=1
%Mem=10GB

#p B3LYP/6-31G* opt freq

test

0  1
C           5.16900         1.69960        -2.03610
O           4.65100         1.62300        -0.71420
C           3.54490         0.84170        -0.52770
C           3.08340         0.78570         0.78750
C           1.95740         0.02680         1.12140
C           1.26030        -0.68910         0.13810
C           0.03020        -1.52040         0.44570
O           0.10750        -2.03800         1.78720
C          -0.77790        -1.38610         2.59390
O          -0.88650        -1.59510         3.79110
C          -1.54930        -0.36030         1.79980
C          -2.98130        -0.22790         2.29980
C          -1.37710        -0.86990         0.36120
C          -2.38080        -2.02420         0.05280
C          -1.58440         0.18540        -0.76610
C          -1.02690         1.61800        -0.58750
C          -2.03800         2.56110         0.07440
C          -0.65520         2.20390        -1.95660
C           1.74260        -0.63740        -1.18030
C           2.87130         0.12250        -1.51180
H           5.49560         0.71620        -2.39000
H           6.04620         2.35340        -2.01410
H           4.43930         2.14450        -2.72070
H           3.60940         1.33510         1.56510
H           1.64580         0.00370         2.16300
H           0.07520        -2.40110        -0.20860
H          -1.02040         0.58690         1.94840
H          -3.59510         0.35960         1.61110
H          -3.45920        -1.20250         2.44600
H          -2.99470         0.27520         3.27330
H          -3.41580        -1.66580         0.03140
H          -2.32430        -2.83090         0.79210
H          -2.17220        -2.46580        -0.92910
H          -1.17270        -0.24880        -1.68760
H          -2.66150         0.28150        -0.96310
H          -0.12220         1.61170         0.02320
H          -2.97270         2.60700        -0.49500
H          -2.27870         2.25490         1.09340
H          -1.63420         3.57810         0.13370
H          -1.52980         2.26260        -2.61380
H          -0.24300         3.21310        -1.84960
H           0.10160         1.59110        -2.45590
H           1.23890        -1.19110        -1.97070
H           3.19540         0.12880        -2.54700

