%NProcShared=1
%Mem=10GB

#p B3LYP/6-31G* opt freq

test

0  1
C           4.59090         0.76520         4.10480
O           4.27690         1.40160         2.87280
C           3.06940         1.09630         2.30940
C           2.12100         0.21580         2.82420
C           0.91980        -0.00710         2.13840
C           0.64800         0.62970         0.91780
C          -0.66020         0.37500         0.19810
O          -1.20590         1.64600        -0.19520
C          -2.00240         1.48810        -1.28510
O          -2.65670         2.38550        -1.79070
C          -1.98290         0.05380        -1.74850
C          -3.30880        -0.58700        -1.34730
C          -0.67700        -0.48880        -1.08540
C           0.46310        -0.15660        -2.07900
C          -0.76580        -2.02260        -0.83200
C           0.32150        -2.77960        -0.03670
C          -0.10950        -4.24880         0.10790
C           1.72110        -2.74010        -0.64120
C           1.59960         1.53560         0.42800
C           2.79830         1.75760         1.11210
H           3.87570         1.04270         4.88620
H           4.64460        -0.32190         3.98510
H           5.57910         1.11450         4.41920
H           2.27850        -0.31040         3.75970
H           0.19220        -0.68610         2.57890
H          -1.37110        -0.03530         0.92890
H          -1.89660         0.03910        -2.84170
H          -4.15040        -0.02830        -1.77290
H          -3.38080        -1.61350        -1.71980
H          -3.44880        -0.59610        -0.26110
H           1.45680        -0.30270        -1.65920
H           0.41970         0.88490        -2.41830
H           0.39040        -0.78550        -2.97410
H          -0.88800        -2.51850        -1.80560
H          -1.69810        -2.21620        -0.28660
H           0.37020        -2.37520         0.97650
H          -1.09200        -4.32380         0.58610
H           0.60080        -4.80500         0.72930
H          -0.16670        -4.74340        -0.86790
H           1.69790        -2.91780        -1.72100
H           2.36630        -3.50330        -0.19130
H           2.20880        -1.78270        -0.44630
H           1.41460         2.09130        -0.48890
H           3.52330         2.46130         0.70990

