%NProcShared=1
%Mem=10GB

#p B3LYP/6-31G* opt freq

test

0  1
C           4.39790         0.89510         4.62890
O           4.13230         1.63790         3.44610
C           2.99540         1.31860         2.75710
C           2.76760         2.08820         1.61600
C           1.64240         1.86740         0.81700
C           0.71990         0.86360         1.14240
C          -0.50270         0.59200         0.28780
O          -0.89150         1.76150        -0.44060
C          -1.60950         1.38010        -1.53120
O          -2.19460         2.16150        -2.26360
C          -1.58580        -0.12530        -1.67940
C          -1.51570        -0.49880        -3.15520
C          -0.39710        -0.53640        -0.78130
C           0.95360        -0.46020        -1.52470
C          -0.58950        -1.91530        -0.08070
C          -0.96410        -3.16070        -0.91430
C          -1.40910        -4.28120         0.03930
C           0.17590        -3.69050        -1.78270
C           0.95360         0.09920         2.29590
C           2.08160         0.32250         3.09550
H           4.54400        -0.16650         4.40370
H           5.32910         1.27490         5.06020
H           3.60520         1.03700         5.37090
H           3.47170         2.87180         1.34590
H           1.49590         2.49170        -0.06240
H          -1.33760         0.39840         0.97720
H          -2.52570        -0.49800        -1.25170
H          -2.44470        -0.21010        -3.66060
H          -1.38640        -1.57210        -3.30380
H          -0.70480         0.02440        -3.67330
H           1.78280        -0.76650        -0.87770
H           1.16370         0.55630        -1.87640
H           0.98630        -1.10170        -2.40570
H          -1.38830        -1.79140         0.66450
H           0.31280        -2.14790         0.50050
H          -1.82370        -2.93270        -1.55270
H          -2.26250        -3.96170         0.64690
H          -1.71940        -5.17020        -0.52030
H          -0.59850        -4.57150         0.71660
H           1.10840        -3.76970        -1.21430
H           0.35150        -3.05410        -2.65090
H          -0.06180        -4.68540        -2.17590
H           0.25430        -0.68060         2.59050
H           2.21350        -0.29810         3.97540

