%NProcShared=1
%Mem=10GB

#p B3LYP/6-31G* opt freq

test

0  1
C           4.76610         1.62470         3.97630
O           4.53090         1.77840         2.58270
C           3.26880         1.50440         2.13410
C           2.19560         1.07390         2.91170
C           0.95030         0.82680         2.32020
C           0.75560         1.00170         0.94140
C          -0.59940         0.71650         0.32530
O          -0.76390         1.42950        -0.90590
C          -1.70320         0.79650        -1.65770
O          -2.15920         1.24160        -2.69840
C          -2.10600        -0.50840        -1.01510
C          -3.50420        -0.35620        -0.42480
C          -0.95390        -0.75940        -0.01130
C          -1.37440        -1.51440         1.25840
C           0.23440        -1.49920        -0.72250
C           0.18280        -3.04400        -0.84600
C           1.49920        -3.54300        -1.45840
C          -0.98290        -3.58000        -1.67230
C           1.84100         1.44230         0.17120
C           3.08280         1.68750         0.76360
H           5.81070         1.88670         4.17010
H           4.13830         2.30580         4.56040
H           4.62010         0.58550         4.28890
H           2.29070         0.92200         3.98160
H           0.12940         0.49950         2.95490
H          -1.34650         1.14520         1.00910
H          -2.12980        -1.26140        -1.80440
H          -4.22210        -0.07890        -1.20510
H          -3.84880        -1.29480         0.01980
H          -3.54560         0.42690         0.33950
H          -2.06570        -0.92720         1.87280
H          -0.50710        -1.74910         1.88470
H          -1.87600        -2.45730         1.01990
H           0.39570        -1.06580        -1.71880
H           1.15120        -1.29080        -0.15840
H           0.11670        -3.47880         0.15850
H           1.63660        -3.15540        -2.47370
H           1.51680        -4.63700        -1.50750
H           2.35610        -3.22590        -0.85450
H          -1.94230        -3.38620        -1.18530
H          -0.99910        -3.13590        -2.67310
H          -0.90520        -4.66640        -1.79260
H           1.73400         1.59870        -0.90070
H           3.91270         2.02750         0.14850

