%NProcShared=1
%Mem=10GB

#p B3LYP/6-31G* opt freq

test

0  1
C           5.29150         2.33380         0.97490
O           4.65910         1.31840         1.74380
C           3.32270         1.12480         1.53040
C           2.74150         0.13590         2.32330
C           1.38220        -0.16680         2.20570
C           0.57200         0.51030         1.28140
C          -0.89720         0.14950         1.18030
O          -1.66200         1.30570         0.78980
C          -2.07900         1.17840        -0.50230
O          -2.70030         2.03980        -1.10290
C          -1.61850        -0.14120        -1.07130
C          -2.63890        -0.71720        -2.04340
C          -1.34950        -0.96410         0.19740
C          -2.67470        -1.55230         0.77400
C          -0.38370        -2.17540         0.03220
C           0.88270        -2.03250        -0.84580
C           0.62720        -2.41440        -2.30820
C           1.99420        -2.94200        -0.30410
C           1.16420         1.51320         0.49840
C           2.52710         1.81530         0.61890
H           5.24950         2.10260        -0.09470
H           4.85720         3.31680         1.18510
H           6.34560         2.36650         1.26690
H           3.35310        -0.40400         3.04240
H           0.96410        -0.94160         2.84510
H          -1.23210        -0.09070         2.19820
H          -0.68700         0.07660        -1.60420
H          -3.65760        -0.68010        -1.64240
H          -2.64710        -0.13260        -2.97030
H          -2.40610        -1.75370        -2.30370
H          -3.10230        -2.31260         0.11120
H          -2.49470        -2.03350         1.74280
H          -3.43730        -0.78090         0.92930
H          -0.08750        -2.48600         1.04360
H          -0.95440        -3.02790        -0.36260
H           1.25820        -1.00760        -0.82560
H           1.55490        -2.35720        -2.88870
H          -0.08940        -1.74620        -2.78800
H           0.24480        -3.43740        -2.39230
H           2.24920        -2.68200         0.72780
H           2.90560        -2.84250        -0.90330
H           1.68960        -3.99420        -0.32190
H           0.57550         2.08580        -0.21510
H           2.93040         2.60000        -0.01270

